132 18 35 60 98 6 189 23 22 128 10 
140 50 5 133 64 134 156 78 24 
30 2 176 165 69 138 29 96 83 105 197 75 
149 81 41 94 151 142 159 82 
157 188 71 109 79 11 172 97 59 110 
73 13 80 195 130 182 167 179 61 
72 15 153 135 89 125 103 101 154 148 119 
155 44 150 3 137 131 31 185 192 74 
46 199 54 38 136 37 164 141 191 198 
1 51 26 8 162 76 169 53 42 108 
87 120 36 68 21 122 17 40 45 
196 145 161 92 163 104 194 90 9 52 
57 173 152 99 62 84 39 65 190 
55 93 12 19 95 118 88 183 200 77 
168 143 113 146 124 126 49 28 27 
4 147 86 25 116 43 107 
106 85 166 193 175 32 177 127 102 
158 123 66 56 33 129 186 70 
112 20 34 100 114 58 174 
7 16 187 171 181 111 91 
115 139 160 180 
63 67 48 121 144 
184 14 178 47 
117 170 

